
Gurobi 8.1.1 (win64) logging started 11/26/19 00:52:51

Changed value of parameter LogFile to logs/full/qp/full-07-30-2.log
   Prev: gurobi.log  Default: 
Changed value of parameter LogToConsole to 0
   Prev: 1  Min: 0  Max: 1  Default: 1
Changed value of parameter TimeLimit to 3600.0
   Prev: 1e+100  Min: 0.0  Max: 1e+100  Default: 1e+100
Optimize a model with 1 rows, 917 columns and 1 nonzeros
Model has 20 quadratic constraints
Variable types: 0 continuous, 917 integer (917 binary)
Coefficient statistics:
  Matrix range     [1e+00, 1e+00]
  QMatrix range    [1e+00, 1e+00]
  Objective range  [1e+00, 1e+00]
  Bounds range     [1e+00, 1e+00]
  RHS range        [1e+00, 1e+00]
  QRHS range       [1e+00, 2e+00]
Found heuristic solution: objective 917.0000000
Presolve removed 1 rows and 1 columns
Presolve time: 2.44s
Presolved: 0 rows, 916 columns, 0 nonzeros
Variable types: 0 continuous, 916 integer (916 binary)

Root relaxation: objective 1.000000e+00, 0 iterations, 0.27 seconds

    Nodes    |    Current Node    |     Objective Bounds      |     Work
 Expl Unexpl |  Obj  Depth IntInf | Incumbent    BestBd   Gap | It/Node Time

     0     0    2.50000    0    1  917.00000    2.50000   100%     -    4s
H    0     0                      10.0000000    2.50000  75.0%     -    4s
     0     0    2.50000    0    1   10.00000    2.50000  75.0%     -    5s
     0     2    2.50000    0    1   10.00000    2.50000  75.0%     -    6s
    92    40    5.00000   17    -   10.00000    2.50000  75.0%   1.8   10s
   175    77    5.00000   31    -   10.00000    2.50000  75.0%   1.8   15s
   225    95    5.00000   39    -   10.00000    2.50000  75.0%   1.8   20s
   298   126    5.00000   54    -   10.00000    2.50000  75.0%   1.7   25s
   371   153    5.00000   63    -   10.00000    2.50000  75.0%   1.7   30s
   414   175    5.00000   68    -   10.00000    2.50000  75.0%   1.7   35s
   480   205    5.00000   76    -   10.00000    2.50000  75.0%   1.7   40s
   530   223    5.00000   86    -   10.00000    2.50000  75.0%   1.6   45s
H  563   215                       9.0000000    2.50000  72.2%   1.6   49s
   564   210    5.00000   93    -    9.00000    2.50000  72.2%   1.6   51s
   602   221    5.00000  101    -    9.00000    2.50000  72.2%   1.6   57s
   626   228    5.00000  106    -    9.00000    2.50000  72.2%   1.6   61s
   662   240    5.00000  113    -    9.00000    2.50000  72.2%   1.6   67s
   684   249    5.00000  118    -    9.00000    2.50000  72.2%   1.6   72s
   716   258    5.00000  125    -    9.00000    2.50000  72.2%   1.6   76s
   754   272    5.00000  134    -    9.00000    2.50000  72.2%   1.6   81s
   772   280    5.00000  138    -    9.00000    2.50000  72.2%   1.6   85s
   804   291    5.00000  145    -    9.00000    2.50000  72.2%   1.6   90s
   828   301    5.00000  150    -    9.00000    2.50000  72.2%   1.6   97s
   843   306    5.00000  153    -    9.00000    2.50000  72.2%   1.6  102s
   873   311    5.00000  156    -    9.00000    2.50000  72.2%   1.6  105s
   917   332    5.00000  166    -    9.00000    2.50000  72.2%   1.6  112s
   939   341    5.00000  171    -    9.00000    2.50000  72.2%   1.6  115s
   961   351    5.00000  176    -    9.00000    2.50000  72.2%   1.6  121s
   975   360    5.00000  179    -    9.00000    2.50000  72.2%   1.6  126s
   985   362    5.00000  181    -    9.00000    2.50000  72.2%   1.6  130s
  1027   375    5.00000  191    -    9.00000    2.50000  72.2%   1.6  138s
  1053   385    5.00000  197    -    9.00000    2.50000  72.2%   1.6  143s
  1063   394    5.00000  198    -    9.00000    2.50000  72.2%   1.6  148s
  1091   398    5.00000  205    -    9.00000    2.50000  72.2%   1.6  153s
  1119   410    5.00000  212    -    9.00000    2.50000  72.2%   1.6  158s
  1145   425    5.00000  218    -    9.00000    2.50000  72.2%   1.6  163s
  1151   430    5.00000  219    -    9.00000    2.50000  72.2%   1.6  168s
  1177   434    5.00000  225    -    9.00000    2.50000  72.2%   1.6  173s
  1203   445    5.00000  231    -    9.00000    2.50000  72.2%   1.6  181s
  1253   456    5.00000  237    -    9.00000    2.50000  72.2%   1.6  187s
  1279   479    5.00000  243    -    9.00000    2.50000  72.2%   1.6  193s
  1309   490    5.00000  250    -    9.00000    2.50000  72.2%   1.6  201s
  1333   503    5.00000  254    -    9.00000    2.50000  72.2%   1.6  207s
  1363   513    5.00000  261    -    9.00000    2.50000  72.2%   1.6  214s
  1393   526    5.00000  268    -    9.00000    2.50000  72.2%   1.6  220s
  1423   539    5.00000  275    -    9.00000    2.50000  72.2%   1.6  227s
  1453   556    5.00000  282    -    9.00000    2.50000  72.2%   1.6  233s
  1459   561    5.00000  283    -    9.00000    2.50000  72.2%   1.6  240s
  1489   566    5.00000  290    -    9.00000    2.50000  72.2%   1.6  247s
  1523   579    5.00000  298    -    9.00000    2.50000  72.2%   1.6  255s
  1557   594    5.00000  306    -    9.00000    2.50000  72.2%   1.6  263s
  1591   609    5.00000  314    -    9.00000    2.50000  72.2%   1.6  270s
  1609   624    5.00000  316    -    9.00000    2.50000  72.2%   1.6  279s
  1649   631    5.00000  327    -    9.00000    2.50000  72.2%   1.6  290s
  1673   649    5.00000  333    -    9.00000    2.50000  72.2%   1.5  298s
  1707   659    5.00000  341    -    9.00000    2.50000  72.2%   1.5  307s
  1745   674    5.00000  350    -    9.00000    2.50000  72.2%   1.5  317s
  1783   691    5.00000  359    -    9.00000    2.50000  72.2%   1.5  327s
  1809   708    5.00000  365    -    9.00000    2.50000  72.2%   1.5  337s
  1847   719    5.00000  374    -    9.00000    2.50000  72.2%   1.5  346s
  1885   736    5.00000  383    -    9.00000    2.50000  72.2%   1.5  355s
  1899   753    5.00000  384    -    9.00000    2.50000  72.2%   1.5  364s
  1914   761    5.00000  391    -    9.00000    2.50000  72.2%   1.5  365s
  1937   758    5.00000  393    -    9.00000    2.50000  72.2%   1.5  377s
  1981   775    5.00000  405    -    9.00000    2.50000  72.2%   1.5  393s
  2013   795    5.00000  412    -    9.00000    2.50000  72.2%   1.5  405s
  2049   809    5.00000  421    -    9.00000    2.50000  72.2%   1.5  417s
  2093   825    5.00000  432    -    9.00000    2.50000  72.2%   1.5  429s
  2123   845    5.00000  439    -    9.00000    2.50000  72.2%   1.5  441s
  2165   858    5.00000  449    -    9.00000    2.50000  72.2%   1.5  453s
  2211   876    5.00000  460    -    9.00000    2.50000  72.2%   1.5  463s
  2226   898    5.00000  461    -    9.00000    2.50000  72.2%   1.5  476s
  2274   903    5.00000  474    -    9.00000    2.50000  72.2%   1.5  489s
  2322   924    5.00000  486    -    9.00000    2.50000  72.2%   1.5  501s
  2346   946    5.00000  489    -    9.00000    2.50000  72.2%   1.5  515s
  2402   956    5.00000  504    -    9.00000    2.50000  72.2%   1.5  526s
  2420   982    5.00000  505    -    9.00000    2.50000  72.2%   1.5  542s
  2478   989    5.00000  522    -    9.00000    2.50000  72.2%   1.5  556s
  2530  1016    5.00000  535    -    9.00000    2.50000  72.2%   1.5  568s
  2552  1040    5.00000  536    -    9.00000    2.50000  72.2%   1.5  585s
  2616  1049    5.00000  555    -    9.00000    2.50000  72.2%   1.5  600s
  2668  1079    5.00000  568    -    9.00000    2.50000  72.2%   1.5  613s
  2698  1103    5.00000  572    -    9.00000    2.50000  72.2%   1.5  630s
  2758  1116    5.00000  589    -    9.00000    2.50000  72.2%   1.5  644s
  2794  1144    5.00000  596    -    9.00000    2.50000  72.2%   1.5  660s
  2854  1160    5.00000  612    -    9.00000    2.50000  72.2%   1.5  674s
  2884  1188    5.00000  616    -    9.00000    2.50000  72.2%   1.5  690s
  2944  1201    5.00000  631    -    9.00000    2.50000  72.2%   1.5  713s
  2974  1229    5.00000  638    -    9.00000    2.50000  72.2%   1.5  729s
  3010  1241    5.00000  645    -    9.00000    2.50000  72.2%   1.5  746s
  3073  1258    6.00000  660    -    9.00000    2.50000  72.2%   1.5  761s
  3107  1287    5.00000  666    -    9.00000    2.50000  72.2%   1.5  779s
  3134  1301    5.00000  679    -    9.00000    2.50000  72.2%   1.5  780s
  3181  1302    5.00000  687    -    9.00000    2.50000  72.2%   1.5  798s
  3223  1345    5.00000  698    -    9.00000    2.50000  72.2%   1.5  815s
  3333  1437    8.00000  587    1    9.00000    2.50000  72.2%   1.5 1332s

Explored 3334 nodes (214264 simplex iterations) in 3601.00 seconds
Thread count was 4 (of 4 available processors)

Solution count 3: 9 10 917 

Time limit reached
Best objective 9.000000000000e+00, best bound 3.000000000000e+00, gap 66.6667%
Warning: Q constraint 0 doesn't have a name
